sat_in/task2/18.cnf
p cnf 24 201
1 2 3 4 5 6 7 8 0
9 10 11 12 13 14 15 16 0
17 18 19 20 21 22 23 24 0
-1 -3 0
-1 -11 0
-1 -19 0
-9 -3 0
-9 -11 0
-9 -19 0
-17 -3 0
-17 -11 0
-17 -19 0
-1 -4 0
-1 -12 0
-1 -20 0
-9 -4 0
-9 -12 0
-9 -20 0
-17 -4 0
-17 -12 0
-17 -20 0
-1 -5 0
-1 -13 0
-1 -21 0
-9 -5 0
-9 -13 0
-9 -21 0
-17 -5 0
-17 -13 0
-17 -21 0
-2 -6 0
-2 -14 0
-2 -22 0
-10 -6 0
-10 -14 0
-10 -22 0
-18 -6 0
-18 -14 0
-18 -22 0
-2 -7 0
-2 -15 0
-2 -23 0
-10 -7 0
-10 -15 0
-10 -23 0
-18 -7 0
-18 -15 0
-18 -23 0
-2 -8 0
-2 -16 0
-2 -24 0
-10 -8 0
-10 -16 0
-10 -24 0
-18 -8 0
-18 -16 0
-18 -24 0
-3 -4 0
-3 -12 0
-3 -20 0
-11 -4 0
-11 -12 0
-11 -20 0
-19 -4 0
-19 -12 0
-19 -20 0
-3 -5 0
-3 -13 0
-3 -21 0
-11 -5 0
-11 -13 0
-11 -21 0
-19 -5 0
-19 -13 0
-19 -21 0
-3 -6 0
-3 -14 0
-3 -22 0
-11 -6 0
-11 -14 0
-11 -22 0
-19 -6 0
-19 -14 0
-19 -22 0
-3 -7 0
-3 -15 0
-3 -23 0
-11 -7 0
-11 -15 0
-11 -23 0
-19 -7 0
-19 -15 0
-19 -23 0
-3 -8 0
-3 -16 0
-3 -24 0
-11 -8 0
-11 -16 0
-11 -24 0
-19 -8 0
-19 -16 0
-19 -24 0
-4 -5 0
-4 -13 0
-4 -21 0
-12 -5 0
-12 -13 0
-12 -21 0
-20 -5 0
-20 -13 0
-20 -21 0
-4 -6 0
-4 -14 0
-4 -22 0
-12 -6 0
-12 -14 0
-12 -22 0
-20 -6 0
-20 -14 0
-20 -22 0
-5 -8 0
-5 -16 0
-5 -24 0
-13 -8 0
-13 -16 0
-13 -24 0
-21 -8 0
-21 -16 0
-21 -24 0
-6 -7 0
-6 -15 0
-6 -23 0
-14 -7 0
-14 -15 0
-14 -23 0
-22 -7 0
-22 -15 0
-22 -23 0
-1 -2 0
-1 -6 0
-1 -7 0
-1 -8 0
-2 -3 0
-2 -4 0
-2 -5 0
-4 -7 0
-4 -8 0
-5 -6 0
-5 -7 0
-6 -8 0
-7 -8 0
-9 -10 0
-9 -14 0
-9 -15 0
-9 -16 0
-10 -11 0
-10 -12 0
-10 -13 0
-12 -15 0
-12 -16 0
-13 -14 0
-13 -15 0
-14 -16 0
-15 -16 0
-17 -18 0
-17 -22 0
-17 -23 0
-17 -24 0
-18 -19 0
-18 -20 0
-18 -21 0
-20 -23 0
-20 -24 0
-21 -22 0
-21 -23 0
-22 -24 0
-23 -24 0
-1 -9 0
-1 -17 0
-9 -17 0
-2 -10 0
-2 -18 0
-10 -18 0
-3 -11 0
-3 -19 0
-11 -19 0
-4 -12 0
-4 -20 0
-12 -20 0
-5 -13 0
-5 -21 0
-13 -21 0
-6 -14 0
-6 -22 0
-14 -22 0
-7 -15 0
-7 -23 0
-15 -23 0
-8 -16 0
-8 -24 0
-16 -24 0
