out/task2/18.out
True
6 8 1 